2
4
20
1 1.3 1.55 1.75 2.1
40 26 46 18 49 45 24 22 28 39 20 9 13 34 18 25 41 11 34 22 41 19 34 32 7 13 34 43 8 21 44 23 28 38 46 47 35 21 31 41 49 44 46 9 13 10 30 12 31 40 32 28 43 8 46 27 48 7 39 24 47 29 44 27 33 48 24 19 20 21 46 48 37 36 6 22 26 13 8 25 